set S := 1 2 3;
set D := 11, 13, 14;


param I_max := 3;

param c_total := 10;

param c_min_s :=
	1 0
	2 0
	3 0
;

param c_max_s :=
	1 10
	2 10
	3 10
;

param c_min_d :=
	11 0
	13 0
	14 0
;

param c_max_d :=
	11 10
	13 10
	14 10
;


set F[1] := (5,5) (8,8) (10,9);
set F[2] := (5,5) (8,8) (10,9);
set F[3] := (5,5) (8,8) (10,9);
set F[11] := (5,5) (8,8) (10,9);
set F[13] := (5,5) (8,8) (10,9);
set F[14] := (5,5) (8,8) (10,9);

param NumGroups :=
	1 	3
	2	3
	3	3
	11 	3
	13	3
	14	3
;

set FG[1,1] := (5,5);
set FG[1,2] := (8,8);
set FG[1,3] := (10,9);
set FG[2,1] := (5,5);
set FG[2,2] := (8,8);
set FG[2,3] := (10,9);
set FG[3,1] := (5,5);
set FG[3,2] := (8,8);
set FG[3,3] := (10,9);
set FG[11,1] := (5,5);
set FG[11,2] := (8,8);
set FG[11,3] := (10,9);
set FG[13,1] := (5,5);
set FG[13,2] := (8,8);
set FG[13,3] := (10,9);
set FG[14,1] := (5,5);
set FG[14,2] := (8,8);
set FG[14,3] := (10,9);


set V:= 1,2,3,4,5,6,7,8,9,10,11,12,13,14;
param A:   1  2  3  4  5  6  7  8  9  10 11 12 13 14:=
		1  0  1  1  0  0  0  0  1  0  0  0  0  0  0
		2  1  0  1  1  0  0  0  0  0  0  0  0  0  0
		3  1  1  0  0  0  1  0  0  0  0  0  0  0  0
		4  0  1  0  0  1  0  0  0  0  0  1  0  0  0
		5  0  0  0  1  0  1  1  0  0  0  0  0  0  0
		6  0  0  1  0  1  0  0  0  0  1  0  0  1  0
		7  0  0  0  0  1  0  0  1  0  0  0  0  0  0
		8  1  0  0  0  0  0  1  0  1  0  0  0  0  0
		9  0  0  0  0  0  0  0  1  0  1  0  1  0  1
		10 0  0  0  0  0  1  0  0  1  0  0  0  0  0
		11 0  0  0  1  0  0  0  0  0  0  0  1  0  1
		12 0  0  0  0  0  0  0  0  1  0  1  0  1  0
		13 0  0  0  0  0  1  0  0  0  0  0  1  0  1
		14 0  0  0  0  0  0  0  0  1  0  1  0  1  0;